; Tree sort
(declare-datatypes (a)
  ((list :source |Prelude.[]| (nil :source |Prelude.[]|)
     (cons :source |Prelude.:| (head a) (tail (list a))))))
(declare-datatypes () ((Nat (Z) (S (p Nat)))))
(declare-datatypes ()
  ((Tree :source Sort.Tree
     (TNode :source Sort.TNode (proj1-TNode Tree)
       (proj2-TNode Nat) (proj3-TNode Tree))
     (TNil :source Sort.TNil))))
(define-fun-rec
  le
    ((x Nat) (y Nat)) Bool
    (match x
      (case Z true)
      (case (S z)
        (match y
          (case Z false)
          (case (S x2) (le z x2))))))
(define-fun-rec
  flatten :source Sort.flatten
    ((x Tree) (y (list Nat))) (list Nat)
    (match x
      (case (TNode q z r) (flatten q (cons z (flatten r y))))
      (case TNil y)))
(define-fun-rec
  (par (a)
    (elem :let :source Prelude.elem
       ((x a) (y (list a))) Bool
       (match y
         (case nil false)
         (case (cons z xs) (or (= z x) (elem x xs)))))))
(define-fun-rec
  (par (a)
    (deleteBy :source Data.List.deleteBy
       ((x (=> a (=> a Bool))) (y a) (z (list a))) (list a)
       (match z
         (case nil (_ nil a))
         (case (cons y2 ys)
           (ite (@ (@ x y) y2) ys (cons y2 (deleteBy x y ys))))))))
(define-fun-rec
  (par (a)
    (isPermutation :source SortUtils.isPermutation
       ((x (list a)) (y (list a))) Bool
       (match x
         (case nil
           (match y
             (case nil true)
             (case (cons z x2) false)))
         (case (cons x3 xs)
           (and (elem x3 y)
             (isPermutation xs
               (deleteBy (lambda ((x4 a)) (lambda ((x5 a)) (= x4 x5)))
                 x3 y))))))))
(define-fun-rec
  add :source Sort.add
    ((x Nat) (y Tree)) Tree
    (match y
      (case (TNode q z r)
        (ite (le x z) (TNode (add x q) z r) (TNode q z (add x r))))
      (case TNil (TNode TNil x TNil))))
(define-fun-rec
  toTree :source Sort.toTree
    ((x (list Nat))) Tree
    (match x
      (case nil TNil)
      (case (cons y xs) (add y (toTree xs)))))
(define-fun
  tsort :source Sort.tsort
    ((x (list Nat))) (list Nat) (flatten (toTree x) (_ nil Nat)))
(prove
  :source Sort.prop_TSortPermutes
  (forall ((xs (list Nat))) (isPermutation (tsort xs) xs)))
